
  32    4
  10   10   10   10

   0   0   0   0   0   3 2 19 31 
   1   1   1   0   1   1 3 
   2   4   3   1   0   2 23 4 
   6   0   3   3   7   1 5 
   3   0   4   7   2   3 30 11 6 
   8   3   4   4   0   1 7 
   7   5   0   3   3   3 29 12 8 
   5   0   4   4   5   2 17 9 
   5   0   7   3   5   3 21 16 10 
   7   5   3   0   3   2 28 13 
   5   6   0   4   4   2 16 14 
   5   1   5   5   0   2 21 17 
   8   0   6   4   4   1 14 
   7   3   3   0   2   1 15 
   9   6   3   2   0   1 18 
   1   0   4   6   2   1 18 
   7   0   5   5   6   1 18 
   2   3   2   0   2   1 20 
   4   3   5   0   5   1 20 
  10   2   2   0   4   1 22 
   1   5   5   4   0   1 22 
   3   3   2   1   0   1 24 
   5   2   0   4   4   1 24 
   7   5   6   0   3   2 27 25 
   1   5   3   0   5   1 26 
   1   7   0   3   4   1 32
   7   5   0   7   4   1 32
   6   0   3   4   8   1 32
   4   0   9   4   3   1 32
   9   5   2   6   0   1 32
   1   5   6   0   6   1 32
   0   0   0   0   0   0 
